c FILE: random-n100-d20-g-n100-d20-1.col

p edge 100 990
e 1 9
e 1 12
e 1 13
e 1 17
e 1 23
e 1 25
e 1 26
e 1 29
e 1 46
e 1 56
e 1 57
e 1 66
e 1 71
e 1 72
e 1 74
e 1 78
e 1 79
e 1 83
e 1 97
e 1 99
e 2 4
e 2 7
e 2 12
e 2 15
e 2 16
e 2 27
e 2 39
e 2 43
e 2 48
e 2 53
e 2 56
e 2 59
e 2 63
e 2 78
e 2 89
e 2 99
e 3 6
e 3 10
e 3 18
e 3 20
e 3 24
e 3 34
e 3 36
e 3 38
e 3 58
e 3 63
e 3 67
e 3 69
e 3 78
e 3 79
e 3 81
e 3 90
e 3 91
e 3 99
e 4 7
e 4 11
e 4 15
e 4 18
e 4 19
e 4 20
e 4 21
e 4 26
e 4 38
e 4 41
e 4 49
e 4 53
e 4 66
e 4 73
e 4 78
e 4 81
e 4 91
e 4 93
e 4 98
e 5 16
e 5 20
e 5 24
e 5 45
e 5 54
e 5 59
e 5 66
e 5 70
e 5 71
e 5 78
e 5 79
e 5 84
e 5 86
e 5 87
e 5 91
e 5 99
e 5 100
e 6 8
e 6 10
e 6 14
e 6 22
e 6 26
e 6 30
e 6 34
e 6 35
e 6 38
e 6 45
e 6 53
e 6 62
e 6 71
e 6 72
e 6 73
e 6 76
e 6 80
e 6 83
e 6 86
e 6 87
e 6 95
e 6 99
e 7 9
e 7 34
e 7 42
e 7 43
e 7 48
e 7 49
e 7 51
e 7 55
e 7 67
e 7 69
e 7 76
e 7 79
e 7 82
e 7 85
e 7 93
e 7 94
e 8 13
e 8 22
e 8 25
e 8 26
e 8 27
e 8 29
e 8 30
e 8 33
e 8 34
e 8 38
e 8 39
e 8 41
e 8 42
e 8 48
e 8 51
e 8 58
e 8 67
e 8 69
e 8 74
e 8 76
e 8 78
e 8 84
e 8 87
e 8 98
e 8 100
e 9 13
e 9 14
e 9 18
e 9 20
e 9 22
e 9 26
e 9 28
e 9 29
e 9 30
e 9 41
e 9 42
e 9 43
e 9 45
e 9 58
e 9 59
e 9 69
e 9 73
e 9 74
e 9 78
e 9 81
e 9 86
e 9 99
e 10 13
e 10 22
e 10 31
e 10 47
e 10 63
e 10 74
e 10 88
e 10 97
e 11 16
e 11 18
e 11 19
e 11 23
e 11 25
e 11 29
e 11 30
e 11 34
e 11 37
e 11 41
e 11 49
e 11 59
e 11 66
e 11 68
e 11 83
e 11 90
e 11 94
e 11 97
e 11 98
e 12 26
e 12 28
e 12 31
e 12 34
e 12 36
e 12 45
e 12 47
e 12 48
e 12 57
e 12 59
e 12 67
e 12 70
e 12 71
e 12 72
e 12 77
e 12 83
e 12 87
e 12 88
e 12 91
e 13 16
e 13 19
e 13 22
e 13 25
e 13 28
e 13 34
e 13 43
e 13 46
e 13 50
e 13 55
e 13 62
e 13 65
e 13 69
e 13 77
e 13 80
e 13 84
e 13 86
e 13 98
e 13 100
e 14 18
e 14 20
e 14 23
e 14 24
e 14 30
e 14 40
e 14 47
e 14 48
e 14 49
e 14 58
e 14 65
e 14 67
e 14 68
e 14 77
e 14 78
e 14 80
e 14 87
e 14 88
e 14 90
e 14 91
e 14 100
e 15 19
e 15 26
e 15 29
e 15 34
e 15 41
e 15 44
e 15 52
e 15 61
e 15 63
e 15 67
e 15 70
e 15 79
e 15 84
e 15 90
e 15 93
e 15 95
e 16 19
e 16 20
e 16 21
e 16 22
e 16 33
e 16 34
e 16 37
e 16 39
e 16 42
e 16 49
e 16 54
e 16 57
e 16 61
e 16 79
e 16 88
e 17 19
e 17 23
e 17 33
e 17 35
e 17 36
e 17 41
e 17 53
e 17 64
e 17 73
e 17 74
e 17 82
e 17 83
e 17 84
e 17 88
e 17 91
e 17 92
e 17 96
e 17 98
e 18 30
e 18 38
e 18 39
e 18 50
e 18 54
e 18 67
e 18 69
e 18 74
e 18 75
e 18 77
e 18 80
e 18 81
e 18 89
e 18 90
e 18 91
e 18 95
e 19 24
e 19 25
e 19 27
e 19 42
e 19 51
e 19 52
e 19 56
e 19 58
e 19 89
e 19 91
e 19 93
e 20 26
e 20 27
e 20 29
e 20 30
e 20 36
e 20 37
e 20 39
e 20 40
e 20 45
e 20 65
e 20 66
e 20 68
e 20 71
e 20 78
e 20 89
e 20 90
e 20 91
e 21 36
e 21 38
e 21 47
e 21 52
e 21 65
e 21 70
e 21 73
e 21 86
e 21 87
e 22 25
e 22 28
e 22 40
e 22 43
e 22 45
e 22 46
e 22 47
e 22 55
e 22 58
e 22 59
e 22 65
e 22 71
e 22 75
e 22 86
e 22 89
e 22 91
e 22 98
e 23 27
e 23 34
e 23 37
e 23 43
e 23 49
e 23 50
e 23 51
e 23 56
e 23 57
e 23 59
e 23 83
e 23 85
e 23 91
e 23 93
e 24 30
e 24 37
e 24 43
e 24 45
e 24 46
e 24 48
e 24 51
e 24 53
e 24 54
e 24 57
e 24 66
e 24 76
e 24 88
e 24 89
e 24 90
e 24 91
e 24 98
e 24 99
e 25 26
e 25 29
e 25 31
e 25 32
e 25 37
e 25 42
e 25 47
e 25 49
e 25 53
e 25 54
e 25 61
e 25 63
e 25 71
e 25 72
e 25 73
e 25 74
e 25 77
e 25 78
e 25 79
e 25 81
e 25 84
e 25 97
e 25 99
e 26 29
e 26 32
e 26 40
e 26 43
e 26 46
e 26 49
e 26 53
e 26 60
e 26 62
e 26 67
e 26 79
e 26 80
e 26 86
e 26 94
e 26 96
e 26 99
e 27 31
e 27 36
e 27 44
e 27 46
e 27 52
e 27 55
e 27 57
e 27 68
e 27 80
e 27 81
e 27 84
e 27 85
e 27 90
e 27 93
e 28 29
e 28 31
e 28 32
e 28 34
e 28 39
e 28 42
e 28 57
e 28 70
e 28 72
e 28 79
e 28 90
e 28 91
e 28 92
e 28 97
e 28 98
e 29 33
e 29 35
e 29 40
e 29 47
e 29 49
e 29 52
e 29 54
e 29 56
e 29 57
e 29 65
e 29 68
e 29 75
e 29 78
e 29 82
e 29 87
e 29 93
e 30 42
e 30 44
e 30 48
e 30 50
e 30 53
e 30 69
e 30 70
e 30 72
e 30 74
e 30 79
e 30 80
e 30 82
e 30 88
e 30 90
e 31 32
e 31 42
e 31 43
e 31 48
e 31 50
e 31 55
e 31 75
e 31 81
e 31 97
e 32 40
e 32 45
e 32 49
e 32 57
e 32 60
e 32 63
e 32 67
e 32 69
e 32 87
e 32 97
e 33 35
e 33 48
e 33 50
e 33 54
e 33 56
e 33 79
e 33 81
e 33 84
e 33 88
e 33 95
e 33 97
e 34 35
e 34 43
e 34 55
e 34 57
e 34 64
e 34 65
e 34 66
e 34 71
e 34 85
e 34 87
e 34 96
e 35 36
e 35 54
e 35 55
e 35 63
e 35 64
e 35 65
e 35 66
e 35 73
e 35 77
e 35 79
e 35 82
e 35 84
e 35 86
e 35 93
e 35 96
e 35 98
e 36 44
e 36 47
e 36 54
e 36 56
e 36 59
e 36 61
e 36 67
e 36 72
e 36 81
e 36 94
e 36 96
e 36 99
e 37 40
e 37 47
e 37 63
e 37 64
e 37 67
e 37 70
e 37 71
e 37 76
e 37 79
e 37 85
e 37 87
e 38 39
e 38 44
e 38 51
e 38 52
e 38 56
e 38 60
e 38 63
e 38 68
e 38 86
e 38 88
e 38 93
e 38 97
e 39 40
e 39 46
e 39 47
e 39 66
e 39 70
e 39 85
e 39 90
e 39 92
e 39 95
e 39 96
e 40 53
e 40 64
e 40 79
e 40 82
e 40 88
e 40 93
e 40 99
e 41 54
e 41 58
e 41 60
e 41 61
e 41 68
e 41 71
e 41 73
e 41 79
e 41 80
e 41 90
e 41 99
e 42 45
e 42 47
e 42 52
e 42 53
e 42 62
e 42 63
e 42 67
e 42 69
e 42 70
e 42 72
e 42 77
e 42 78
e 42 79
e 42 80
e 42 81
e 42 82
e 42 88
e 42 89
e 42 93
e 42 98
e 42 99
e 42 100
e 43 48
e 43 50
e 43 52
e 43 54
e 43 65
e 43 66
e 43 67
e 43 69
e 43 74
e 43 77
e 43 82
e 43 83
e 43 88
e 43 91
e 43 95
e 44 60
e 44 61
e 44 65
e 44 66
e 44 67
e 44 72
e 44 78
e 44 80
e 44 86
e 44 87
e 44 88
e 44 90
e 45 49
e 45 65
e 45 71
e 45 94
e 45 99
e 46 47
e 46 49
e 46 50
e 46 51
e 46 58
e 46 70
e 46 72
e 46 75
e 46 80
e 46 86
e 46 87
e 46 92
e 46 93
e 46 100
e 47 50
e 47 61
e 47 63
e 47 74
e 47 75
e 47 79
e 48 49
e 48 52
e 48 62
e 48 66
e 48 71
e 48 76
e 48 80
e 48 81
e 48 90
e 49 55
e 49 56
e 49 60
e 49 61
e 49 64
e 49 66
e 49 74
e 49 77
e 49 82
e 49 83
e 49 84
e 49 87
e 49 96
e 49 98
e 50 55
e 50 72
e 50 74
e 50 81
e 50 85
e 50 89
e 50 100
e 51 62
e 51 63
e 51 65
e 51 69
e 51 74
e 51 79
e 51 80
e 51 88
e 51 95
e 51 97
e 52 53
e 52 55
e 52 56
e 52 57
e 52 58
e 52 59
e 52 68
e 52 75
e 52 80
e 52 81
e 52 85
e 53 55
e 53 57
e 53 62
e 53 63
e 53 67
e 53 72
e 53 81
e 53 84
e 53 86
e 53 94
e 53 99
e 54 56
e 54 60
e 54 62
e 54 63
e 54 70
e 54 73
e 54 75
e 54 76
e 54 77
e 54 79
e 54 80
e 54 83
e 54 88
e 54 89
e 54 92
e 54 93
e 54 100
e 55 57
e 55 58
e 55 63
e 55 67
e 55 69
e 55 75
e 55 77
e 55 87
e 55 95
e 55 96
e 55 97
e 56 57
e 56 62
e 56 63
e 56 67
e 56 71
e 56 74
e 56 75
e 56 77
e 56 79
e 56 81
e 56 82
e 56 90
e 56 93
e 56 94
e 56 99
e 57 58
e 57 77
e 57 82
e 57 84
e 57 85
e 57 86
e 57 95
e 57 96
e 57 98
e 58 61
e 58 74
e 58 75
e 58 82
e 58 87
e 58 89
e 58 91
e 58 98
e 59 67
e 59 70
e 59 72
e 59 73
e 59 76
e 59 78
e 59 81
e 59 86
e 59 89
e 59 92
e 59 96
e 60 64
e 60 69
e 60 74
e 60 78
e 60 79
e 60 83
e 60 88
e 60 92
e 61 62
e 61 80
e 61 81
e 61 84
e 62 64
e 62 67
e 62 80
e 62 81
e 62 86
e 62 88
e 62 90
e 62 95
e 62 99
e 62 100
e 63 65
e 63 66
e 63 75
e 63 87
e 63 94
e 63 99
e 64 68
e 64 73
e 64 74
e 64 75
e 64 77
e 64 86
e 64 92
e 64 94
e 64 95
e 64 96
e 64 99
e 65 67
e 65 78
e 65 90
e 65 91
e 65 98
e 66 73
e 66 77
e 66 93
e 66 95
e 66 97
e 66 99
e 67 75
e 67 82
e 67 92
e 67 94
e 67 97
e 68 69
e 68 79
e 68 83
e 68 86
e 68 95
e 69 75
e 69 77
e 69 88
e 69 91
e 69 94
e 70 78
e 70 83
e 70 85
e 70 88
e 70 90
e 70 91
e 70 96
e 70 99
e 71 77
e 71 79
e 71 83
e 71 92
e 71 95
e 71 98
e 72 83
e 72 88
e 72 92
e 72 95
e 72 100
e 73 74
e 73 78
e 73 81
e 73 86
e 73 93
e 73 97
e 73 99
e 74 87
e 74 93
e 74 97
e 75 81
e 75 87
e 75 91
e 75 97
e 76 80
e 76 85
e 76 89
e 76 96
e 76 97
e 77 82
e 77 92
e 77 98
e 77 99
e 78 88
e 78 95
e 78 96
e 79 83
e 79 85
e 79 97
e 79 98
e 80 85
e 80 88
e 80 97
e 81 83
e 81 86
e 82 84
e 82 94
e 82 96
e 83 84
e 83 91
e 83 100
e 84 85
e 84 86
e 85 93
e 85 100
e 86 90
e 86 92
e 87 91
e 87 95
e 87 96
e 87 97
e 87 99
e 87 100
e 88 90
e 88 93
e 89 91
e 89 92
e 89 97
e 90 99
e 91 99
e 92 97
e 92 100
e 93 97
e 93 98
e 93 99
e 96 98
e 97 98
e 97 99
e 98 100